language ESSENCE' 1.0

letting jobs = 102
letting horizon = 801
letting resourcesRenew = 2
letting resourcesNonrenew = 2
letting resourceLimits = [88, 76, 190, 134]
letting successors = [[2, 3, 4, 5, 6, 7, 8, 9, 10, 11, 12, 13, 14, 15, 17, 18, 19, 21, 22, 23, 24, 25, 28, 30, 33, 34, 36, 38, 44, 50, 57], [101, 67, 56, 55, 52, 48, 47, 45, 32, 31, 26, 20], [101, 93, 73, 72, 71, 70, 67, 66, 56, 55, 49, 47, 41, 40, 35, 27], [101, 100, 95, 73, 70, 56, 51, 47, 29, 16], [101, 98, 97, 92, 91, 73, 69, 68, 64, 61, 58, 55, 53, 47, 46, 43, 39], [99, 97, 95, 94, 93, 91, 90, 89, 70, 69, 67, 65, 64, 60, 58, 56, 55, 47, 42, 39], [101, 100, 95, 90, 73, 71, 70, 69, 67, 66, 65, 64, 63, 59, 52, 45, 41, 35], [100, 95, 94, 93, 92, 90, 73, 71, 70, 64, 63, 59, 56, 55, 41, 39, 35], [100, 99, 97, 95, 93, 73, 69, 65, 64, 63, 59, 55, 53, 52, 43, 39], [101, 95, 94, 92, 73, 66, 59, 42, 20], [96, 94, 90, 88, 73, 71, 60, 59, 56, 54, 47, 45, 41, 37], [100, 96, 95, 93, 92, 87, 67, 64, 61, 60, 59, 55, 51, 48, 47, 41], [95, 93, 92, 91, 73, 67, 20], [97, 96, 95, 90, 89, 75, 73, 71, 67, 60, 56, 55, 39, 37], [101, 97, 79, 69, 65, 59, 52, 51, 26], [99, 97, 96, 94, 91, 90, 89, 86, 80, 71, 67, 66, 65, 64, 63, 54], [100, 98, 97, 95, 93, 89, 81, 72, 70, 65, 63, 62, 59, 56, 51], [101, 99, 98, 95, 93, 91, 89, 87, 84, 82, 81, 73, 72, 69, 65, 63, 60, 53], [98, 97, 95, 94, 86, 78, 73, 71, 69, 66, 65, 47, 41], [100, 90, 86, 82, 71, 70, 69, 64, 63, 41, 35], [99, 98, 96, 91, 89, 88, 84, 78, 73, 71, 67, 66, 54, 47], [94, 93, 91, 90, 87, 86, 80, 71, 66, 64, 63, 35], [99, 98, 97, 95, 86, 84, 81, 66, 65, 63, 54, 52], [97, 96, 93, 90, 83, 78, 69, 67, 66, 62, 59, 41], [95, 93, 88, 87, 86, 78, 71, 69, 63, 59, 41], [96, 95, 93, 91, 84, 81, 80, 78, 75, 74, 70, 66, 63], [98, 91, 87, 85, 84, 81, 80, 79, 78, 75, 69, 52], [92, 90, 89, 85, 75, 69, 64, 59, 55], [98, 93, 92, 90, 88, 86, 78, 76, 75, 72, 71, 69, 66], [97, 94, 93, 91, 89, 85, 78, 75, 65, 55], [98, 96, 95, 93, 89, 87, 86, 80, 79, 78, 77, 76, 75, 74, 72], [95, 94, 90, 88, 87, 85, 84, 81, 79, 78, 75, 72, 66], [96, 92, 86, 81, 79, 78, 77, 75, 73, 69, 63], [93, 90, 81, 79, 75, 74, 73, 63, 59], [98, 97, 96, 88, 85, 84, 83, 81, 79, 78, 77, 76, 75, 74], [93, 91, 90, 86, 84, 82, 81, 80, 78, 77, 76, 75, 74], [100, 99, 98, 92, 84, 83, 82, 80, 79, 78, 76, 70], [94, 92, 89, 88, 87, 84, 81, 79, 77, 76, 74], [88, 81, 80, 79, 78, 74, 72, 66], [95, 94, 86, 85, 83, 82, 75, 64], [99, 89, 85, 84, 81, 80, 79, 76, 75, 74], [100, 82, 81, 80, 76, 75, 74, 72], [90, 84, 83, 79, 78, 75, 74, 70], [97, 87, 80, 79, 75, 74, 66], [89, 87, 79, 78, 77, 76, 75, 74], [100, 95, 93, 86, 80, 78, 76, 75], [82, 80, 79, 74, 63], [94, 91, 88, 86, 84, 83, 75], [90, 86, 81, 78, 77, 75, 74], [97, 95, 86, 82, 78, 77, 75], [90, 86, 84, 78, 66], [94, 92, 89, 88, 77, 76], [96, 94, 86, 79, 78, 74], [93, 87, 79, 75, 69], [86, 81, 80, 76, 74], [87, 86, 85, 80, 74], [90, 83, 80, 79, 78], [83, 75, 66], [91, 82, 77, 76], [86, 79, 76, 74], [85, 79, 78, 75], [82, 80, 77, 75], [85, 83, 76], [84, 78, 76], [92, 88, 77], [82, 77], [79, 74], [81, 78], [74], [87], [81], [83], [80], [102], [102], [102], [102], [102], [102], [102], [102], [102], [102], [102], [102], [102], [102], [102], [102], [102], [102], [102], [102], [102], [102], [102], [102], [102], [102], [102], [102], []]
letting durations = [[0], [1, 2, 2], [3, 6, 7], [6, 10, 10], [5, 6, 8], [1, 6, 7], [4, 5, 7], [2, 3, 9], [8, 8, 9], [1, 2, 7], [1, 7, 10], [3, 5, 8], [1, 6, 10], [3, 3, 9], [3, 7, 10], [1, 5, 6], [1, 4, 8], [7, 7, 8], [4, 6, 8], [2, 3, 8], [4, 5, 8], [4, 6, 9], [1, 6, 7], [4, 4, 5], [6, 7, 10], [5, 6, 7], [6, 8, 9], [2, 5, 7], [1, 2, 6], [4, 9, 10], [5, 5, 9], [1, 2, 9], [4, 7, 8], [4, 4, 7], [1, 9, 10], [1, 6, 8], [1, 3, 8], [1, 3, 6], [4, 6, 9], [2, 6, 10], [4, 6, 7], [2, 7, 10], [2, 9, 10], [3, 4, 10], [3, 8, 9], [1, 2, 2], [5, 8, 10], [3, 5, 8], [4, 6, 8], [2, 5, 9], [2, 8, 10], [4, 6, 10], [3, 5, 8], [4, 5, 10], [1, 3, 3], [4, 4, 6], [4, 8, 10], [5, 6, 10], [3, 5, 10], [1, 3, 9], [2, 9, 10], [1, 4, 5], [2, 4, 6], [2, 6, 7], [3, 4, 5], [3, 4, 6], [2, 7, 10], [5, 6, 8], [7, 7, 9], [2, 6, 9], [1, 5, 10], [3, 6, 8], [1, 2, 10], [1, 5, 9], [1, 5, 7], [1, 7, 8], [1, 2, 10], [6, 7, 10], [1, 2, 5], [3, 5, 8], [2, 7, 9], [1, 2, 7], [2, 2, 10], [4, 7, 8], [4, 4, 5], [2, 5, 6], [4, 9, 10], [2, 7, 8], [1, 7, 10], [1, 5, 8], [1, 8, 10], [1, 4, 6], [1, 1, 1], [2, 5, 10], [1, 4, 9], [3, 5, 7], [8, 9, 10], [4, 7, 10], [1, 4, 7], [1, 6, 6], [1, 2, 2], [0]]
letting resourceUsage = [[[0, 0, 0, 0]], [[2, 0, 9, 0], [2, 0, 8, 0], [0, 5, 9, 0]], [[0, 8, 0, 8], [0, 7, 1, 0], [0, 6, 1, 0]], [[2, 0, 9, 0], [2, 0, 8, 0], [0, 1, 0, 1]], [[10, 0, 4, 0], [9, 0, 2, 0], [9, 0, 0, 5]], [[0, 7, 0, 9], [4, 0, 8, 0], [3, 0, 0, 9]], [[1, 0, 9, 0], [1, 0, 8, 0], [1, 0, 7, 0]], [[0, 3, 0, 4], [3, 0, 7, 0], [0, 2, 0, 1]], [[3, 0, 6, 0], [3, 0, 0, 5], [3, 0, 0, 2]], [[0, 9, 0, 2], [8, 0, 4, 0], [6, 0, 3, 0]], [[10, 0, 5, 0], [0, 5, 4, 0], [0, 4, 0, 3]], [[0, 9, 9, 0], [0, 9, 8, 0], [0, 8, 9, 0]], [[0, 9, 4, 0], [8, 0, 4, 0], [7, 0, 3, 0]], [[4, 0, 0, 10], [0, 9, 0, 10], [4, 0, 1, 0]], [[0, 3, 2, 0], [1, 0, 2, 0], [0, 1, 0, 3]], [[2, 0, 4, 0], [0, 2, 4, 0], [0, 2, 2, 0]], [[4, 0, 0, 9], [2, 0, 0, 5], [1, 0, 0, 3]], [[0, 8, 10, 0], [7, 0, 8, 0], [6, 0, 6, 0]], [[0, 9, 6, 0], [3, 0, 6, 0], [0, 8, 2, 0]], [[0, 4, 3, 0], [0, 4, 2, 0], [7, 0, 2, 0]], [[0, 3, 9, 0], [0, 2, 0, 4], [0, 1, 0, 2]], [[8, 0, 0, 10], [7, 0, 2, 0], [0, 6, 0, 8]], [[9, 0, 5, 0], [7, 0, 4, 0], [0, 3, 0, 1]], [[4, 0, 6, 0], [0, 6, 4, 0], [2, 0, 0, 5]], [[0, 5, 7, 0], [8, 0, 0, 4], [0, 5, 0, 3]], [[5, 0, 7, 0], [5, 0, 6, 0], [5, 0, 5, 0]], [[10, 0, 6, 0], [9, 0, 0, 1], [0, 3, 0, 1]], [[9, 0, 8, 0], [0, 2, 0, 5], [4, 0, 3, 0]], [[10, 0, 8, 0], [7, 0, 0, 3], [0, 6, 2, 0]], [[9, 0, 4, 0], [0, 4, 0, 3], [0, 2, 0, 3]], [[0, 8, 0, 9], [10, 0, 0, 9], [0, 3, 0, 8]], [[0, 3, 0, 7], [0, 2, 0, 6], [3, 0, 0, 4]], [[9, 0, 7, 0], [0, 4, 7, 0], [0, 4, 3, 0]], [[7, 0, 7, 0], [5, 0, 0, 5], [3, 0, 4, 0]], [[5, 0, 8, 0], [5, 0, 0, 6], [4, 0, 3, 0]], [[0, 10, 0, 8], [0, 10, 3, 0], [7, 0, 0, 4]], [[3, 0, 0, 10], [0, 5, 0, 9], [1, 0, 0, 8]], [[0, 9, 0, 4], [7, 0, 2, 0], [0, 4, 0, 2]], [[7, 0, 10, 0], [3, 0, 10, 0], [1, 0, 0, 2]], [[7, 0, 6, 0], [0, 9, 0, 4], [0, 9, 0, 3]], [[6, 0, 2, 0], [0, 1, 0, 4], [6, 0, 1, 0]], [[0, 4, 6, 0], [0, 3, 0, 4], [0, 2, 2, 0]], [[0, 7, 6, 0], [0, 5, 0, 7], [2, 0, 2, 0]], [[7, 0, 2, 0], [7, 0, 0, 7], [5, 0, 0, 6]], [[0, 8, 8, 0], [8, 0, 0, 5], [8, 0, 1, 0]], [[7, 0, 6, 0], [0, 8, 0, 6], [7, 0, 3, 0]], [[0, 9, 0, 7], [5, 0, 6, 0], [0, 8, 0, 3]], [[8, 0, 0, 9], [0, 5, 3, 0], [7, 0, 0, 5]], [[0, 3, 0, 4], [9, 0, 5, 0], [9, 0, 0, 4]], [[9, 0, 6, 0], [6, 0, 0, 7], [5, 0, 0, 5]], [[0, 8, 8, 0], [0, 8, 0, 3], [0, 7, 0, 2]], [[9, 0, 6, 0], [0, 6, 0, 6], [8, 0, 3, 0]], [[3, 0, 0, 1], [0, 4, 3, 0], [0, 2, 0, 1]], [[0, 7, 10, 0], [0, 6, 0, 5], [1, 0, 0, 4]], [[8, 0, 10, 0], [0, 8, 8, 0], [0, 7, 0, 1]], [[0, 8, 0, 9], [5, 0, 5, 0], [3, 0, 2, 0]], [[4, 0, 0, 6], [3, 0, 0, 3], [0, 6, 0, 1]], [[0, 7, 0, 9], [0, 6, 0, 6], [4, 0, 1, 0]], [[0, 10, 6, 0], [0, 10, 5, 0], [0, 10, 4, 0]], [[3, 0, 4, 0], [0, 8, 0, 6], [0, 5, 3, 0]], [[5, 0, 0, 9], [3, 0, 0, 4], [0, 2, 0, 3]], [[7, 0, 7, 0], [0, 5, 7, 0], [0, 3, 3, 0]], [[0, 6, 0, 2], [0, 4, 3, 0], [3, 0, 0, 2]], [[10, 0, 0, 3], [0, 2, 0, 3], [9, 0, 0, 3]], [[6, 0, 0, 9], [6, 0, 9, 0], [0, 8, 0, 4]], [[0, 9, 7, 0], [8, 0, 6, 0], [5, 0, 0, 1]], [[2, 0, 4, 0], [0, 8, 0, 5], [1, 0, 2, 0]], [[0, 4, 5, 0], [0, 3, 3, 0], [0, 3, 0, 2]], [[0, 6, 5, 0], [4, 0, 0, 3], [0, 4, 1, 0]], [[0, 1, 3, 0], [0, 1, 0, 3], [0, 1, 2, 0]], [[0, 8, 7, 0], [0, 5, 5, 0], [6, 0, 2, 0]], [[0, 8, 3, 0], [6, 0, 0, 4], [4, 0, 0, 2]], [[9, 0, 6, 0], [0, 7, 4, 0], [4, 0, 2, 0]], [[9, 0, 0, 5], [6, 0, 2, 0], [0, 4, 2, 0]], [[3, 0, 0, 9], [3, 0, 0, 7], [0, 4, 0, 7]], [[0, 2, 0, 3], [0, 2, 0, 2], [0, 2, 0, 1]], [[0, 9, 6, 0], [7, 0, 0, 3], [5, 0, 0, 3]], [[5, 0, 0, 1], [2, 0, 0, 1], [1, 0, 7, 0]], [[5, 0, 0, 6], [0, 7, 0, 6], [2, 0, 1, 0]], [[0, 7, 7, 0], [0, 5, 5, 0], [0, 4, 4, 0]], [[0, 8, 0, 9], [4, 0, 0, 8], [0, 5, 0, 7]], [[0, 6, 3, 0], [0, 5, 3, 0], [0, 5, 2, 0]], [[0, 6, 0, 6], [0, 4, 4, 0], [0, 1, 0, 3]], [[5, 0, 5, 0], [5, 0, 4, 0], [0, 3, 5, 0]], [[10, 0, 9, 0], [0, 7, 6, 0], [0, 7, 4, 0]], [[0, 7, 0, 1], [7, 0, 9, 0], [0, 6, 9, 0]], [[0, 10, 0, 3], [8, 0, 4, 0], [0, 9, 0, 2]], [[8, 0, 8, 0], [8, 0, 0, 6], [0, 4, 2, 0]], [[5, 0, 7, 0], [4, 0, 6, 0], [0, 2, 4, 0]], [[4, 0, 0, 3], [0, 2, 0, 2], [4, 0, 0, 1]], [[0, 3, 6, 0], [0, 3, 2, 0], [1, 0, 0, 6]], [[8, 0, 8, 0], [0, 3, 6, 0], [0, 3, 4, 0]], [[1, 0, 9, 0], [0, 5, 0, 5], [1, 0, 0, 2]], [[2, 0, 8, 0], [0, 5, 4, 0], [0, 5, 3, 0]], [[2, 0, 0, 7], [2, 0, 0, 6], [2, 0, 0, 4]], [[0, 9, 0, 5], [3, 0, 2, 0], [2, 0, 2, 0]], [[8, 0, 7, 0], [4, 0, 0, 8], [0, 1, 4, 0]], [[5, 0, 2, 0], [3, 0, 1, 0], [2, 0, 0, 3]], [[7, 0, 3, 0], [0, 5, 2, 0], [0, 5, 0, 4]], [[5, 0, 0, 10], [4, 0, 6, 0], [4, 0, 0, 7]], [[0, 9, 8, 0], [0, 8, 6, 0], [2, 0, 3, 0]], [[0, 0, 0, 0]]]
